VRPTWMS/instances/mip/freight/Comparison/N4-C_DV10-C_SV50_F10_9_No_1.log

Gurobi 6.0.4 (win64) logging started 06/18/15 16:03:13

Read LP format model from file C:\MT\repository\VRPTWMS\instances\mip\freight\N4-C_DV10-C_SV50_F10_9_No_1.lp
Reading time = 0.00 seconds
(null): 129 rows, 72 columns, 447 nonzeros
Optimize a model with 129 rows, 72 columns and 447 nonzeros
Model has 64 quadratic constraints
Coefficient statistics:
  Matrix range    [1e+00, 1e+06]
  Objective range [7e+04, 1e+07]
  Bounds range    [1e+00, 1e+06]
  RHS range       [1e+00, 1e+06]
Presolve removed 35 rows and 18 columns
Presolve time: 0.01s
Presolved: 194 rows, 104 columns, 860 nonzeros
Variable types: 50 continuous, 54 integer (38 binary)
Found heuristic solution: objective 2.107080e+07

Root relaxation: objective 1.486412e+07, 31 iterations, 0.00 seconds

    Nodes    |    Current Node    |     Objective Bounds      |     Work
 Expl Unexpl |  Obj  Depth IntInf | Incumbent    BestBd   Gap | It/Node Time

     0     0 1.4864e+07    0   10 2.1071e+07 1.4864e+07  29.5%     -    0s
     0     0     cutoff    0      2.1071e+07 2.1071e+07  0.00%     -    0s

Cutting planes:
  Learned: 1
  Gomory: 1
  Cover: 1
  Implied bound: 2

Explored 0 nodes (48 simplex iterations) in 0.01 seconds
Thread count was 2 (of 4 available processors)

Optimal solution found (tolerance 1.00e-04)
Best objective 2.107080000000e+07, best bound 2.107080000000e+07, gap 0.0%
k_c1	90000.0
k_c2	50000.0
k_c3	60000.0
k_c4	20000.0
k_dN	-0.0
o_1	-0.0
o_2	-0.0
o_3	-0.0
o_4	-0.0
p_1	-0.0
p_2	-0.0
p_3	-0.0
p_4	-0.0
phi_c1	42153.0
phi_c2	5713.0
phi_c3	87791.0
phi_c4	23408.0
phi_d0	100000.0
phi_dN	-0.0
tauD_c1	250000.0
tauD_c2	250000.0
tauD_c3	115000.0
tauD_c4	650000.0
tauD_d0	-0.0
tauD_dN	1000000.0
tauS_c1	-0.0
tauS_c2	17550.0
tauS_c3	34625.0
tauS_c4	832525.0
tauS_d0	-0.0
tauS_dN	-0.0
x_c1_c4	1.0
x_c2_dN	1.0
x_c3_c2	1.0
x_c4_dN	1.0
x_d0_c1	1.0
x_d0_c3	1.0
